# Solution for model problem
# Objective value = 13
CLIENT_PE6_0 1
CLIENT_PE3_1 1
CLIENT_PE4_2 1
CLIENT_PE4_7 1
src_0 1
fft_1 1
matrix_3 1
ifft_1 1
fir_3 1
angle_1 1
road_1 1
table_1 1
sink_2 1
CLIENT_PE2_0 0
CLIENT_PE4_0 0
CLIENT_PE13_0 0
CLIENT_PE2_1 0
CLIENT_PE4_1 0
CLIENT_PE6_1 0
CLIENT_PE13_1 0
CLIENT_PE0_2 0
CLIENT_PE2_2 0
CLIENT_PE3_2 0
CLIENT_PE6_2 0
CLIENT_PE7_2 0
CLIENT_PE13_2 0
CLIENT_PE14_2 0
CLIENT_PE0_7 0
CLIENT_PE2_7 0
CLIENT_PE3_7 0
CLIENT_PE6_7 0
CLIENT_PE7_7 0
CLIENT_PE13_7 0
CLIENT_PE14_7 0
src_1 0
src_2 0
src_3 0
fft_0 0
fft_2 0
fft_3 0
ifft_0 0
ifft_2 0
ifft_3 0
road_0 0
road_2 0
road_3 0
sink_0 0
sink_1 0
sink_3 0
matrix_0 0
matrix_1 0
matrix_2 0
fir_0 0
fir_1 0
fir_2 0
angle_0 0
angle_2 0
angle_3 0
table_0 0
table_2 0
table_3 0
